c File: instances/30_0.25_2.col
c
c Description: Random graph of size 30 vertices and P(0.25) of edges between any two vertices.
p col 30 435
e 1 4
e 1 10
e 1 13
e 1 14
e 1 20
e 1 25
e 1 26
e 2 3
e 2 10
e 2 17
e 2 19
e 2 20
e 2 22
e 2 24
e 3 4
e 3 8
e 3 10
e 3 11
e 3 14
e 3 17
e 3 22
e 3 26
e 3 29
e 4 5
e 4 12
e 4 14
e 4 27
e 5 6
e 5 11
e 5 13
e 5 17
e 5 19
e 5 27
e 5 30
e 6 12
e 6 18
e 6 24
e 7 15
e 7 28
e 8 26
e 9 10
e 9 17
e 9 22
e 9 23
e 9 25
e 9 26
e 9 27
e 10 14
e 10 21
e 10 22
e 10 24
e 10 26
e 11 14
e 11 15
e 11 18
e 11 22
e 11 26
e 12 13
e 12 14
e 12 19
e 13 19
e 14 22
e 14 28
e 14 29
e 15 17
e 15 28
e 16 17
e 16 23
e 16 24
e 17 20
e 17 26
e 17 30
e 18 23
e 18 30
e 19 21
e 19 22
e 19 23
e 19 26
e 19 27
e 19 29
e 20 25
e 20 29
e 21 25
e 21 29
e 22 25
e 22 27
e 22 28
e 22 29
e 22 30
e 23 28
e 23 29
e 24 26
e 24 29
e 25 26
e 25 29
e 25 30
e 26 27
e 26 30
e 29 30